48 2
40 96
31 28
62 85
89 92
58 10
87 85
14 44
99 51
16 2
11 37
23 61
2 45
42 48
46 19
87 16
67 96
0 77
44 67
77 51
28 85
8 52
41 5
50 12
52 9
87 36
97 41
88 35
85 58
54 19
51 51
95 61
65 11
76 98
79 52
84 84
80 36
52 29
69 79
14 68
14 65
96 91
42 37
90 83
12 81
11 44
86 77
14 50
50 21
14 60
75 23
49 88
86 96
32 54
98 53
52 17
44 77
67 57
24 99
72 50
54 3
29 6
59 35
27 68
27 96
63 33
95 53
92 84
68 10
31 84
42 61
90 27
44 33
14 5
90 36
40 0
58 17
53 71
60 29
14 94
91 25
45 37
20 0
18 72
24 98
55 57
91 34
76 42
55 89
22 82
58 55
7 85
54 24
56 38
64 56
4 22
37 77
64 50
63 97
65 9
